185373.0
3768
0 1 2 3 4 5 6 7 11 15 16 17 18 19 20 21 22 24 26 28 30 32 33 35 37 38 40 41 42 44 45 46 47 49 50 51 52 53 54 55 56 57 59 60 61 63 64 66 67 68 69 72 73 74 75 76 80 81 82 83 84 85 88 89 90 91 93 94 95 96 98 101 103 104 106 107 108 109 111 112 113 114 116 117 118 119 120 122 124 125 126 128 129 130 131 133 134 136 137 138 139 140 141 144 145 148 149 151 152 153 154 155 157 158 159 160 161 162 163 165 167 169 170 171 172 173 174 175 176 177 178 181 182 183 185 186 188 190 192 194 195 196 199 